\* Problem: MarcosGeraldo *\

Maximize
 popAten: + 7 x(1) + 19 x(2) + 37 x(3) + 44 x(4) + 35 x(5) + 27 x(6)

Subject To
 verbaLimite: + 3.6 x(1) + 2.3 x(2) + 4.1 x(3) + 3.15 x(4) + 2.8 x(5)
 + 2.65 x(6) <= 12

Bounds
 0 <= x(1) <= 1
 0 <= x(2) <= 1
 0 <= x(3) <= 1
 0 <= x(4) <= 1
 0 <= x(5) <= 1
 0 <= x(6) <= 1

Generals
 x(1)
 x(2)
 x(3)
 x(4)
 x(5)
 x(6)

End
